CMD:
./solvers/bin/cadical --plain --no-reduce -t 1600 ./data/cnfs//6s320rb1/6s320rb1.35.cnf

c --- [ banner ] -------------------------------------------------------------
c 
c CaDiCaL SAT Solver
c Copyright (c) 2016-2024
c A. Biere, M. Fleury, N. Froleyks, K. Fazekas, F. Pollitt, T. Faller
c JKU Linz, University of Freiburg, TU Wien
c 
c Version 2.1.3 5296d3d2a9bf48c154ab2acb5e44625776d821bf
c g++ (Gentoo 12.3.1_p20230526 p2) 12.3.1 20230526 -Wall -Wextra -O3 -DNDEBUG
c Sat Aug 9 07:26:21 PDT 2025 Linux cedar2.int.cedar.computecanada.ca 5.14.0-362.24.2.el9_3.x86_64 x86_64
c 
c --- [ limit ] --------------------------------------------------------------
c 
c setting time limit to 1600 seconds real time (due to '-t 1600')
c 
c --- [ parsing input ] ------------------------------------------------------
c 
c reading DIMACS file from './data/cnfs//6s320rb1/6s320rb1.35.cnf'
c opening file to read './data/cnfs//6s320rb1/6s320rb1.35.cnf'
c found 'p cnf 1094497 3277678' header
c parsed 3277678 clauses in 0.47 seconds process time
c 
c --- [ options ] ------------------------------------------------------------
c 
c   --compact=false                (different from default 'true')
c   --decompose=false              (different from default 'true')
c   --deduplicate=false            (different from default 'true')
c   --elim=false                   (different from default 'true')
c   --probe=false                  (different from default 'true')
c   --reduce=false                 (different from default 'true')
c   --subsume=false                (different from default 'true')
c   --ternary=false                (different from default 'true')
c   --transred=false               (different from default 'true')
c   --vivify=false                 (different from default 'true')
c 
c --- [ solving ] ------------------------------------------------------------
c 
c time measured in process time since initialization
c 
c  seconds   reductions  redundant   irredundant
c          MB    restarts       trail         variables
c           level   conflicts       glue            remaining
c 
c *  0.47 502  0 0   0    0    0  0% 0 3269070 1090177 100%
c {  0.60 517  0 0   0    0    0  0% 0 3269070 1090177 100%
c i  0.67 517 71 0   2  237  231  5% 2 3269070 1087050 99%
c i  0.67 517 71 0   2  238  231  5% 2 3269070 1086816 99%
c i  0.70 517 74 0   3  268  257  5% 2 3269070 1086815 99%
c i  0.71 517 69 0  13  304  289  5% 2 3269070 1086813 99%
c i  0.73 517 68 0  16  323  306  5% 2 3269070 1086812 99%
c i  1.06 517 55 0  89  679  634  4% 3 3269070 1086810 99%
c }  1.22 518 52 0 138 1001  932  4% 3 3269070 1086810 99%
c [  1.22 518  0 0 138 1001  932  0% 0 3269070 1086810 99%
c O  1.43 518 1738 0 138 1002  933 97% 5 3269070 1086810 99%
c i  2.43 520 1613 0 139 2278 2122 89% 11 3269070 1086809 99%
c i  2.43 520 1612 0 139 2280 2122 89% 11 3269070 1086642 99%
c i  2.47 520 1606 0 139 2295 2127 88% 11 3269070 1086485 99%
c i  2.60 520 1536 0 139 2383 2197 84% 10 3269070 1086484 99%
c ]  2.84 520 1152 0 139 3002 2773 62% 10 3269070 1086484 99%
c {  2.84 520 52 0 139 3002 2773  4% 3 3269070 1086484 99%
c F  2.85 520 52 0 139 3003 2774  4% 3 3269070 1086484 99%
c i  2.90 520 51 0 142 3135 2893  5% 3 3269070 1086482 99%
c i  2.90 520 51 0 142 3136 2893  5% 3 3269070 1086480 99%
c 
c  seconds   reductions  redundant   irredundant
c          MB    restarts       trail         variables
c           level   conflicts       glue            remaining
c 
c i  2.90 520 51 0 144 3148 2900  5% 3 3269070 1086467 99%
c i  2.91 520 51 0 144 3150 2901  5% 3 3269070 1086462 99%
c i  2.95 521 52 0 151 3232 2978  5% 3 3269070 1086461 99%
c i  3.04 521 51 0 160 3316 3052  5% 3 3269070 1086453 99%
c i  3.06 521 50 0 160 3428 3157  5% 3 3269070 1086429 99%
c i  3.09 521 49 0 165 3460 3178  5% 3 3269070 1086332 99%
c i  3.13 521 49 0 171 3481 3197  5% 3 3269070 1086202 99%
c i  3.22 521 49 0 177 3549 3259  5% 3 3269070 1086074 99%
c i  3.22 521 49 0 178 3558 3267  5% 3 3269070 1086073 99%
c i  3.22 521 49 0 178 3560 3268  5% 3 3269070 1085791 99%
c i  3.23 521 49 0 178 3570 3276  5% 3 3269070 1085766 99%
c i  3.23 521 49 0 178 3572 3277  5% 3 3269070 1085765 99%
c i  3.34 522 49 0 201 3691 3375  5% 3 3269070 1085763 99%
c i  3.48 522 46 0 269 4027 3686  5% 4 3269070 1085758 99%
c i  3.57 522 47 0 277 4075 3731  5% 4 3269070 1076687 98%
c i  3.58 522 47 0 278 4081 3736  5% 4 3269070 1073441 98%
c i  3.61 522 47 0 283 4107 3760  5% 4 3269070 1073439 98%
c i  3.63 522 46 0 283 4131 3780  5% 4 3269070 1073437 98%
c i  3.71 522 46 0 293 4227 3868  5% 4 3269070 1071480 98%
c i  3.73 522 46 0 295 4240 3878  5% 4 3269070 1071479 98%
c 
c  seconds   reductions  redundant   irredundant
c          MB    restarts       trail         variables
c           level   conflicts       glue            remaining
c 
c i  3.87 523 47 0 338 4501 4123  5% 4 3269070 1071478 98%
c i  3.87 523 47 0 338 4523 4143  5% 4 3269070 1071477 98%
c i  4.01 523 46 0 387 4840 4441  5% 4 3269070 1071475 98%
c i  4.01 523 46 0 388 4841 4441  5% 4 3269070 1071474 98%
... skipped 1195 lines ...
c 
c i 1475.04 1052 58 0 51160 1088795 1015744 11% 8 3165076 1062120 97%
c i 1475.25 1052 58 0 51196 1089063 1015994 11% 8 3165076 1062119 97%
c i 1481.71 1053 57 0 51657 1093449 1020078 11% 8 3165076 1062118 97%
c i 1482.54 1054 57 0 51716 1094102 1020671 11% 8 3165076 1062113 97%
c i 1490.69 1055 57 0 52219 1098486 1024726 11% 8 3165076 1062109 97%
c i 1493.49 1056 58 0 52402 1100412 1026504 11% 8 3165076 1062105 97%
c i 1500.21 1057 58 0 52881 1103296 1029180 11% 8 3165076 1062104 97%
c i 1500.32 1057 58 0 52895 1103356 1029237 11% 8 3165076 1062103 97%
c i 1507.08 1059 59 0 53243 1108203 1033688 11% 8 3165076 1062102 97%
c i 1508.64 1059 58 0 53373 1109519 1034907 11% 8 3165076 1062101 97%
c i 1509.01 1059 58 0 53391 1109687 1035058 11% 8 3165076 1062098 97%
c i 1511.63 1059 58 0 53558 1110662 1035967 11% 8 3165076 1062097 97%
c i 1511.64 1059 58 0 53560 1110689 1035985 11% 8 3165076 1062093 97%
c i 1514.97 1061 58 0 53790 1113032 1038142 11% 8 3165076 1062092 97%
c i 1515.03 1061 58 0 53791 1113229 1038302 11% 8 3165076 1062091 97%
c i 1515.30 1061 58 0 53814 1113381 1038431 11% 8 3165076 1062090 97%
c i 1516.15 1062 58 0 53861 1114062 1039051 11% 8 3165076 1062089 97%
c i 1517.06 1062 58 0 53938 1114858 1039782 11% 8 3165076 1062088 97%
c i 1517.65 1062 58 0 53983 1115330 1040226 11% 8 3165076 1062087 97%
c i 1526.69 1064 58 0 54581 1120327 1044860 11% 8 3165076 1062086 97%
c 
c   seconds     reductions         redundant    irredundant
c            MB      restarts              trail         variables
c              level       conflicts           glue            remaining
c 
c i 1532.24 1065 58 0 55001 1123170 1047507 11% 8 3165076 1062085 97%
c i 1532.27 1065 58 0 55004 1123203 1047532 11% 8 3165076 1062084 97%
c i 1537.16 1065 58 0 55268 1126522 1050608 11% 8 3165076 1062083 97%
c i 1538.03 1066 57 0 55323 1127092 1051127 11% 8 3165076 1062082 97%
c W 1540.83 1111 57 0 55443 1128093 1051463 11% 9 3162492 1062082 97%
c i 1552.61 1111 57 0 56157 1133372 1056330 11% 9 3162492 1062081 97%
c i 1555.30 1111 58 0 56296 1135378 1058162 11% 9 3162492 1062080 97%
c i 1558.37 1111 58 0 56415 1137382 1060025 11% 9 3162492 1062079 97%
c i 1558.77 1111 57 0 56425 1137768 1060368 11% 9 3162492 1062021 97%
c i 1560.08 1111 57 0 56500 1138114 1060691 11% 9 3162492 1062020 97%
c i 1561.56 1111 57 0 56608 1139098 1061611 11% 9 3162492 1062019 97%
c i 1563.43 1111 57 0 56705 1139854 1062315 11% 9 3162492 1062018 97%
c i 1567.17 1111 57 0 56971 1142083 1064401 11% 9 3162492 1062017 97%
c i 1581.76 1111 57 0 57844 1149228 1071012 11% 9 3162492 1062016 97%
c i 1583.37 1111 57 0 57918 1150860 1072520 11% 9 3162492 1062015 97%
c i 1584.37 1111 58 0 57991 1151932 1073537 11% 9 3162492 1062012 97%
c i 1586.92 1111 58 0 58166 1153922 1075390 11% 9 3162492 1062010 97%
c i 1587.19 1111 58 0 58190 1154059 1075520 11% 9 3162492 1062009 97%
c } 1591.72 1111 57 0 58495 1156610 1077885 11% 9 3162492 1062009 97%
c ? 1591.72 1111 57 0 58495 1156610 1077885 11% 9 3162492 1062009 97%
c 
c --- [ result ] -------------------------------------------------------------
c 
c UNKNOWN
c 
c --- [ run-time profiling ] -------------------------------------------------
c 
c process time taken by individual solving procedures
c (percentage relative to process time for solving)
c 
c      1591.25  100.00% search
c       914.06   57.44% stable
c       666.01   41.85% unstable
c        11.05    0.69% walk
c         0.47    0.03% parse
c         0.13    0.01% lucky
c         0.00    0.00% simplify
c   =================================
c      1591.25   99.97% solve
c 
c last line shows process time for solving
c (percentage relative to total process time)
c 
c --- [ statistics ] ---------------------------------------------------------
c 
c chronological:            412216        35.64 %  of conflicts
c conflicts:               1156610       726.86    per second
c decisions:               4975465      3126.76    per second
c fixed:                     32485         2.97 %  of all variables
c learned:                 1116367        96.52 %  per conflict
c learned_lits:          180210249       100.00 %  learned literals
c minimized:                     0         0.00 %  learned literals
c shrunken:               14635945         8.12 %  learned literals
c minishrunken:           54483404        30.23 %  learned literals
c otfs:                       4034         0.35 %  of conflict
c propagations:        13409255560         8.43 M  per second
c rephased:                     47     24608.72    interval
c restarts:                  58495        19.77    interval
c stabilizing:                   5        58.96 %  of conflicts
c subsumed:                  33515         0.76 %  of all clauses
c strengthened:               3963         0.09 %  of all clauses
c walked:                       15     77107.33    interval
c 
c seconds are measured in process time for solving
c 
c --- [ resources ] ----------------------------------------------------------
c 
c total process time since initialization:      1591.72    seconds
c total real time since initialization:         1600.02    seconds
c maximum resident set size of process:         1633.64    MB
c 
c --- [ shutting down ] ------------------------------------------------------
c 
c exit 0
